eval/18-encs/equiv_enc_739.smt2
; SWAP1 DUP2 SWAP1 SHA3 PUSH cw_1 SWAP2 => DUP1 PUSH cw_1 SWAP3 SHA3 SWAP1
(set-option :produce-proofs true)
; 
(set-info :status unknown)
(declare-fun storage_t ((_ BitVec 256) (_ BitVec 256) (_ BitVec 256) (_ BitVec 256) Int (_ BitVec 256)) (_ BitVec 256))
(declare-fun w_1 () (_ BitVec 256))
(declare-fun storage_s ((_ BitVec 256) (_ BitVec 256) (_ BitVec 256) (_ BitVec 256) Int (_ BitVec 256)) (_ BitVec 256))
(declare-fun exc_halt_t (Int) Bool)
(declare-fun exc_halt_s (Int) Bool)
(declare-fun stack_t ((_ BitVec 256) (_ BitVec 256) (_ BitVec 256) (_ BitVec 256) Int (_ BitVec 6)) (_ BitVec 256))
(declare-fun stack_s ((_ BitVec 256) (_ BitVec 256) (_ BitVec 256) (_ BitVec 256) Int (_ BitVec 6)) (_ BitVec 256))
(declare-fun sc_t (Int) (_ BitVec 6))
(declare-fun sc_s (Int) (_ BitVec 6))
(declare-fun used_gas_t ((_ BitVec 256) (_ BitVec 256) (_ BitVec 256) (_ BitVec 256) Int) Int)
(declare-fun used_gas_s ((_ BitVec 256) (_ BitVec 256) (_ BitVec 256) (_ BitVec 256) Int) Int)
(declare-fun f_SHA3 ((_ BitVec 256) (_ BitVec 256) (_ BitVec 256) (_ BitVec 256) (_ BitVec 256) (_ BitVec 256)) (_ BitVec 256))
(assert
 (exists ((x_0 (_ BitVec 256)) (x_1 (_ BitVec 256)) (x_SHA3_0 (_ BitVec 256)) )(let (($x7890 (forall ((w (_ BitVec 256)) )(let ((?x11324 (storage_t x_0 x_1 w_1 x_SHA3_0 5 w)))
 (let ((?x124 (storage_s x_0 x_1 w_1 x_SHA3_0 6 w)))
 (= ?x124 ?x11324))))
 ))
 (let (($x1885 (exc_halt_t 5)))
 (let (($x772 (exc_halt_s 6)))
 (let (($x11108 (= $x772 $x1885)))
 (let (($x4136 (forall ((n (_ BitVec 6)) )(let ((?x11454 (stack_t x_0 x_1 w_1 x_SHA3_0 5 n)))
 (let ((?x11613 (stack_s x_0 x_1 w_1 x_SHA3_0 6 n)))
 (let (($x5825 (= ?x11613 ?x11454)))
 (or (bvsle (sc_t 5) n) $x5825)))))
 ))
 (let ((?x8961 (sc_t 5)))
 (let ((?x926 (sc_s 6)))
 (let (($x5889 (= ?x926 ?x8961)))
 (let ((?x10034 (used_gas_t x_0 x_1 w_1 x_SHA3_0 0)))
 (let ((?x10005 (used_gas_s x_0 x_1 w_1 x_SHA3_0 0)))
 (let (($x10109 (= ?x10005 ?x10034)))
 (let (($x11510 (forall ((w (_ BitVec 256)) )(let ((?x10991 (storage_t x_0 x_1 w_1 x_SHA3_0 0 w)))
 (let ((?x494 (storage_s x_0 x_1 w_1 x_SHA3_0 0 w)))
 (= ?x494 ?x10991))))
 ))
 (let (($x56 (exc_halt_t 0)))
 (let (($x57 (exc_halt_s 0)))
 (let (($x58 (= $x57 $x56)))
 (let (($x9571 (forall ((n (_ BitVec 6)) )(let ((?x2316 (stack_t x_0 x_1 w_1 x_SHA3_0 0 n)))
 (let ((?x11489 (stack_s x_0 x_1 w_1 x_SHA3_0 0 n)))
 (let (($x9878 (= ?x11489 ?x2316)))
 (let ((?x63 (sc_t 0)))
 (let (($x8253 (bvsle ?x63 n)))
 (or $x8253 $x9878)))))))
 ))
 (let ((?x63 (sc_t 0)))
 (let ((?x72 (sc_s 0)))
 (let (($x73 (= ?x72 ?x63)))
 (let (($x10755 (= $x1885 (or (exc_halt_t 4) (not (bvsle (_ bv0 6) (bvadd (_ bv62 6) (sc_t 4))))))))
 (let (($x2395 (forall ((w (_ BitVec 256)) )(let ((?x9835 (storage_t x_0 x_1 w_1 x_SHA3_0 4 w)))
 (let ((?x11324 (storage_t x_0 x_1 w_1 x_SHA3_0 5 w)))
 (= ?x11324 ?x9835))))
 ))
 (let (($x7957 (forall ((n (_ BitVec 6)) )(let ((?x9175 (stack_t x_0 x_1 w_1 x_SHA3_0 4 n)))
 (let ((?x11454 (stack_t x_0 x_1 w_1 x_SHA3_0 5 n)))
 (or (= ?x11454 ?x9175) (bvsle (bvadd (_ bv62 6) (sc_t 4)) n)))))
 ))
 (let (($x10326 (= (used_gas_t x_0 x_1 w_1 x_SHA3_0 5) (+ 3 (used_gas_t x_0 x_1 w_1 x_SHA3_0 4)))))
 (let ((?x10182 (sc_t 4)))
 (let ((?x11475 (bvadd (_ bv63 6) ?x10182)))
 (let ((?x4914 (stack_t x_0 x_1 w_1 x_SHA3_0 4 ?x11475)))
 (let (($x11769 (= (stack_t x_0 x_1 w_1 x_SHA3_0 5 (bvadd (_ bv63 6) ?x8961)) (stack_t x_0 x_1 w_1 x_SHA3_0 4 (bvadd (_ bv62 6) ?x10182)))))
 (let (($x7854 (exc_halt_t 4)))
 (let (($x10866 (= $x7854 (or (exc_halt_t 3) (not (bvsle (_ bv0 6) (bvadd (_ bv62 6) (sc_t 3))))))))
 (let (($x7205 (forall ((w (_ BitVec 256)) )(let ((?x11021 (storage_t x_0 x_1 w_1 x_SHA3_0 3 w)))
 (let ((?x9835 (storage_t x_0 x_1 w_1 x_SHA3_0 4 w)))
 (= ?x9835 ?x11021))))
 ))
 (let (($x487 (forall ((n (_ BitVec 6)) )(let ((?x1516 (stack_t x_0 x_1 w_1 x_SHA3_0 3 n)))
 (let ((?x9175 (stack_t x_0 x_1 w_1 x_SHA3_0 4 n)))
 (or (bvsle (bvadd (_ bv62 6) (sc_t 3)) n) (= ?x9175 ?x1516)))))
 ))
 (let ((?x11964 (sc_t 3)))
 (let ((?x10958 (bvadd (_ bv63 6) ?x11964)))
 (let (($x1935 (= ?x10182 ?x10958)))
 (let ((?x1342 (used_gas_t x_0 x_1 w_1 x_SHA3_0 4)))
 (let ((?x2746 (bvadd (_ bv62 6) ?x11964)))
 (let ((?x4477 (stack_t x_0 x_1 w_1 x_SHA3_0 3 ?x2746)))
 (let ((?x4265 (stack_t x_0 x_1 w_1 x_SHA3_0 3 ?x10958)))
 (let (($x4112 (exc_halt_t 3)))
 (let (($x2504 (= $x4112 (or (exc_halt_t 2) (not (bvsle (_ bv0 6) (bvadd (_ bv60 6) (sc_t 2))))))))
 (let (($x10145 (forall ((w (_ BitVec 256)) )(let ((?x4299 (storage_t x_0 x_1 w_1 x_SHA3_0 2 w)))
 (let ((?x11021 (storage_t x_0 x_1 w_1 x_SHA3_0 3 w)))
 (= ?x11021 ?x4299))))
 ))
 (let (($x4754 (forall ((n (_ BitVec 6)) )(let ((?x5014 (sc_t 2)))
 (let ((?x4476 (bvadd (_ bv60 6) ?x5014)))
 (let (($x7433 (bvsle ?x4476 n)))
 (let ((?x11072 (stack_t x_0 x_1 w_1 x_SHA3_0 2 n)))
 (let ((?x1516 (stack_t x_0 x_1 w_1 x_SHA3_0 3 n)))
 (or (= ?x1516 ?x11072) $x7433)))))))
 ))
 (let ((?x5014 (sc_t 2)))
 (let (($x11367 (= ?x11964 ?x5014)))
 (let ((?x9892 (used_gas_t x_0 x_1 w_1 x_SHA3_0 3)))
 (let (($x4527 (= (stack_t x_0 x_1 w_1 x_SHA3_0 3 (bvadd (_ bv61 6) ?x11964)) (stack_t x_0 x_1 w_1 x_SHA3_0 2 (bvadd (_ bv61 6) ?x5014)))))
 (let (($x7454 (= (stack_t x_0 x_1 w_1 x_SHA3_0 3 (bvadd (_ bv60 6) ?x11964)) (stack_t x_0 x_1 w_1 x_SHA3_0 2 (bvadd (_ bv63 6) ?x5014)))))
 (let (($x8506 (not (= ((_ extract 6 6) (bvadd (_ bv1 7) (concat (_ bv0 1) (sc_t 1)))) (_ bv0 1)))))
 (let (($x7119 (exc_halt_t 1)))
 (let (($x9347 (exc_halt_t 2)))
 (let (($x4755 (= $x9347 (or $x7119 $x8506))))
 (let (($x7760 (forall ((w (_ BitVec 256)) )(let ((?x2380 (storage_t x_0 x_1 w_1 x_SHA3_0 1 w)))
 (let ((?x4299 (storage_t x_0 x_1 w_1 x_SHA3_0 2 w)))
 (= ?x4299 ?x2380))))
 ))
 (let (($x6824 (forall ((n (_ BitVec 6)) )(let ((?x10316 (stack_t x_0 x_1 w_1 x_SHA3_0 1 n)))
 (let ((?x11072 (stack_t x_0 x_1 w_1 x_SHA3_0 2 n)))
 (let ((?x11158 (sc_t 1)))
 (let (($x1006 (bvsle ?x11158 n)))
 (or $x1006 (= ?x11072 ?x10316)))))))
 ))
 (let (($x7578 (= ?x5014 (bvadd (_ bv1 6) (sc_t 1)))))
 (let ((?x10899 (used_gas_t x_0 x_1 w_1 x_SHA3_0 2)))
 (let (($x11171 (not (= ((_ extract 6 6) (bvadd (_ bv1 7) (concat (_ bv0 1) ?x63))) (_ bv0 1)))))
 (let (($x5332 (forall ((w (_ BitVec 256)) )(let ((?x10991 (storage_t x_0 x_1 w_1 x_SHA3_0 0 w)))
 (let ((?x2380 (storage_t x_0 x_1 w_1 x_SHA3_0 1 w)))
 (= ?x2380 ?x10991))))
 ))
 (let (($x4270 (forall ((n (_ BitVec 6)) )(let ((?x2316 (stack_t x_0 x_1 w_1 x_SHA3_0 0 n)))
 (let ((?x10316 (stack_t x_0 x_1 w_1 x_SHA3_0 1 n)))
 (or (= ?x10316 ?x2316) (bvsle (bvadd (_ bv63 6) (sc_t 0)) n)))))
 ))
 (let ((?x11158 (sc_t 1)))
 (let (($x10652 (= ?x11158 (bvadd (_ bv1 6) ?x63))))
 (let ((?x2643 (bvadd (_ bv63 6) ?x63)))
 (let ((?x8054 (stack_t x_0 x_1 w_1 x_SHA3_0 0 ?x2643)))
 (let (($x8166 (= $x772 (or (exc_halt_s 5) (not (bvsle (_ bv0 6) (bvadd (_ bv61 6) (sc_s 5))))))))
 (let (($x8122 (forall ((w (_ BitVec 256)) )(let ((?x3150 (storage_s x_0 x_1 w_1 x_SHA3_0 5 w)))
 (let ((?x124 (storage_s x_0 x_1 w_1 x_SHA3_0 6 w)))
 (= ?x124 ?x3150))))
 ))
 (let (($x9275 (forall ((n (_ BitVec 6)) )(let ((?x10056 (stack_s x_0 x_1 w_1 x_SHA3_0 5 n)))
 (let ((?x11613 (stack_s x_0 x_1 w_1 x_SHA3_0 6 n)))
 (or (= ?x11613 ?x10056) (bvsle (bvadd (_ bv61 6) (sc_s 5)) n)))))
 ))
 (let ((?x4319 (sc_s 5)))
 (let (($x4582 (= ?x926 ?x4319)))
 (let (($x8264 (= (used_gas_s x_0 x_1 w_1 x_SHA3_0 6) (+ 3 (used_gas_s x_0 x_1 w_1 x_SHA3_0 5)))))
 (let (($x9387 (= (stack_s x_0 x_1 w_1 x_SHA3_0 6 (bvadd (_ bv62 6) ?x926)) (stack_s x_0 x_1 w_1 x_SHA3_0 5 (bvadd (_ bv62 6) ?x4319)))))
 (let (($x8574 (= (stack_s x_0 x_1 w_1 x_SHA3_0 6 (bvadd (_ bv61 6) ?x926)) (stack_s x_0 x_1 w_1 x_SHA3_0 5 (bvadd (_ bv63 6) ?x4319)))))
 (let (($x5206 (= (stack_s x_0 x_1 w_1 x_SHA3_0 6 (bvadd (_ bv63 6) ?x926)) (stack_s x_0 x_1 w_1 x_SHA3_0 5 (bvadd (_ bv61 6) ?x4319)))))
 (let (($x9304 (exc_halt_s 4)))
 (let (($x1583 (or $x9304 (not (= ((_ extract 6 6) (bvadd (_ bv1 7) (concat (_ bv0 1) (sc_s 4)))) (_ bv0 1))))))
 (let (($x1862 (exc_halt_s 5)))
 (let (($x8006 (= $x1862 $x1583)))
 (let (($x5211 (forall ((w (_ BitVec 256)) )(let ((?x10370 (storage_s x_0 x_1 w_1 x_SHA3_0 4 w)))
 (let ((?x3150 (storage_s x_0 x_1 w_1 x_SHA3_0 5 w)))
 (= ?x3150 ?x10370))))
 ))
 (let (($x6343 (forall ((n (_ BitVec 6)) )(let ((?x451 (stack_s x_0 x_1 w_1 x_SHA3_0 4 n)))
 (let ((?x10056 (stack_s x_0 x_1 w_1 x_SHA3_0 5 n)))
 (let ((?x785 (sc_s 4)))
 (let (($x6041 (bvsle ?x785 n)))
 (or $x6041 (= ?x10056 ?x451)))))))
 ))
 (let (($x7497 (= ?x4319 (bvadd (_ bv1 6) (sc_s 4)))))
 (let ((?x11404 (used_gas_s x_0 x_1 w_1 x_SHA3_0 5)))
 (let (($x3334 (= $x9304 (or (exc_halt_s 3) (not (bvsle (_ bv0 6) (bvadd (_ bv62 6) (sc_s 3))))))))
 (let (($x1715 (forall ((w (_ BitVec 256)) )(let ((?x212 (storage_s x_0 x_1 w_1 x_SHA3_0 3 w)))
 (let ((?x10370 (storage_s x_0 x_1 w_1 x_SHA3_0 4 w)))
 (= ?x10370 ?x212))))
 ))
 (let (($x4684 (forall ((n (_ BitVec 6)) )(let ((?x4910 (stack_s x_0 x_1 w_1 x_SHA3_0 3 n)))
 (let ((?x451 (stack_s x_0 x_1 w_1 x_SHA3_0 4 n)))
 (let ((?x2683 (sc_s 3)))
 (let ((?x11729 (bvadd (_ bv62 6) ?x2683)))
 (let (($x4816 (bvsle ?x11729 n)))
 (or $x4816 (= ?x451 ?x4910))))))))
 ))
 (let ((?x5036 (used_gas_s x_0 x_1 w_1 x_SHA3_0 4)))
 (let ((?x2683 (sc_s 3)))
 (let ((?x11729 (bvadd (_ bv62 6) ?x2683)))
 (let ((?x109 (stack_s x_0 x_1 w_1 x_SHA3_0 3 ?x11729)))
 (let ((?x11671 (bvadd (_ bv63 6) ?x2683)))
 (let ((?x7689 (stack_s x_0 x_1 w_1 x_SHA3_0 3 ?x11671)))
 (let (($x6218 (= (stack_s x_0 x_1 w_1 x_SHA3_0 4 (bvadd (_ bv63 6) (sc_s 4))) (f_SHA3 x_0 x_1 w_1 x_SHA3_0 ?x7689 ?x109))))
 (let (($x2622 (exc_halt_s 3)))
 (let (($x2002 (= $x2622 (or (exc_halt_s 2) (not (bvsle (_ bv0 6) (bvadd (_ bv62 6) (sc_s 2))))))))
 (let (($x8464 (forall ((w (_ BitVec 256)) )(let ((?x10967 (storage_s x_0 x_1 w_1 x_SHA3_0 2 w)))
 (let ((?x212 (storage_s x_0 x_1 w_1 x_SHA3_0 3 w)))
 (= ?x212 ?x10967))))
 ))
 (let (($x2782 (forall ((n (_ BitVec 6)) )(let ((?x5345 (stack_s x_0 x_1 w_1 x_SHA3_0 2 n)))
 (let ((?x4910 (stack_s x_0 x_1 w_1 x_SHA3_0 3 n)))
 (let ((?x4659 (sc_s 2)))
 (let ((?x1411 (bvadd (_ bv62 6) ?x4659)))
 (let (($x6829 (bvsle ?x1411 n)))
 (or $x6829 (= ?x4910 ?x5345))))))))
 ))
 (let ((?x4659 (sc_s 2)))
 (let (($x1751 (= ?x2683 ?x4659)))
 (let ((?x6278 (used_gas_s x_0 x_1 w_1 x_SHA3_0 3)))
 (let (($x11553 (not (bvsle (_ bv0 6) (bvadd (_ bv62 6) (sc_s 1))))))
 (let (($x7061 (exc_halt_s 1)))
 (let (($x6011 (not (= ((_ extract 6 6) (bvadd (_ bv1 7) (concat (_ bv0 1) (sc_s 1)))) (_ bv0 1)))))
 (let (($x989 (exc_halt_s 2)))
 (let (($x6974 (forall ((w (_ BitVec 256)) )(let ((?x3947 (storage_s x_0 x_1 w_1 x_SHA3_0 1 w)))
 (let ((?x10967 (storage_s x_0 x_1 w_1 x_SHA3_0 2 w)))
 (= ?x10967 ?x3947))))
 ))
 (let (($x5505 (forall ((n (_ BitVec 6)) )(let ((?x154 (sc_s 1)))
 (let ((?x7488 (bvadd (_ bv62 6) ?x154)))
 (let (($x10759 (bvsle ?x7488 n)))
 (let ((?x4608 (stack_s x_0 x_1 w_1 x_SHA3_0 1 n)))
 (let ((?x5345 (stack_s x_0 x_1 w_1 x_SHA3_0 2 n)))
 (or (= ?x5345 ?x4608) $x10759)))))))
 ))
 (let (($x3011 (= ?x4659 (bvadd (_ bv1 6) (sc_s 1)))))
 (let ((?x4103 (used_gas_s x_0 x_1 w_1 x_SHA3_0 2)))
 (let ((?x154 (sc_s 1)))
 (let ((?x10606 (bvadd (_ bv63 6) ?x154)))
 (let ((?x8342 (stack_s x_0 x_1 w_1 x_SHA3_0 1 ?x10606)))
 (let ((?x7488 (bvadd (_ bv62 6) ?x154)))
 (let ((?x6453 (stack_s x_0 x_1 w_1 x_SHA3_0 1 ?x7488)))
 (let (($x3230 (= $x7061 (or $x57 (not (bvsle (_ bv0 6) (bvadd (_ bv62 6) ?x72)))))))
 (let (($x3331 (forall ((w (_ BitVec 256)) )(let ((?x494 (storage_s x_0 x_1 w_1 x_SHA3_0 0 w)))
 (let ((?x3947 (storage_s x_0 x_1 w_1 x_SHA3_0 1 w)))
 (= ?x3947 ?x494))))
 ))
 (let (($x8832 (forall ((n (_ BitVec 6)) )(let ((?x72 (sc_s 0)))
 (let ((?x1178 (bvadd (_ bv62 6) ?x72)))
 (let (($x4575 (bvsle ?x1178 n)))
 (let ((?x11489 (stack_s x_0 x_1 w_1 x_SHA3_0 0 n)))
 (let ((?x4608 (stack_s x_0 x_1 w_1 x_SHA3_0 1 n)))
 (or (= ?x4608 ?x11489) $x4575)))))))
 ))
 (let (($x7813 (= ?x154 ?x72)))
 (let (($x8125 (forall ((w0 (_ BitVec 256)) (w1 (_ BitVec 256)) )(let (($x6200 (= (stack_s x_0 x_1 w_1 x_SHA3_0 3 (bvadd (_ bv62 6) (sc_s 3))) w1)))
 (let (($x11758 (= (stack_s x_0 x_1 w_1 x_SHA3_0 3 (bvadd (_ bv63 6) (sc_s 3))) w0)))
 (let ((?x909 (f_SHA3 x_0 x_1 w_1 x_SHA3_0 w0 w1)))
 (= ?x909 (ite (and $x11758 $x6200) x_SHA3_0 (_ bv0 256)))))))
 ))
 (let (($x3290 (forall ((w (_ BitVec 256)) )(let ((?x494 (storage_s x_0 x_1 w_1 x_SHA3_0 0 w)))
 (= ?x494 (_ bv0 256))))
 ))
 (let (($x2654 (= ?x10005 0)))
 (let (($x11062 (not $x57)))
 (let (($x10801 (= (stack_s x_0 x_1 w_1 x_SHA3_0 0 (_ bv1 6)) x_1)))
 (let (($x2178 (= (stack_s x_0 x_1 w_1 x_SHA3_0 0 (_ bv0 6)) x_0)))
 (let (($x11128 (= ?x72 (_ bv2 6))))
 (and $x11128 $x2178 $x10801 $x11062 $x2654 $x3290 $x8125 (= ?x8342 (stack_s x_0 x_1 w_1 x_SHA3_0 0 (bvadd (_ bv62 6) ?x72))) (= ?x6453 (stack_s x_0 x_1 w_1 x_SHA3_0 0 (bvadd (_ bv63 6) ?x72))) (= (used_gas_s x_0 x_1 w_1 x_SHA3_0 1) (+ 3 ?x10005)) $x7813 $x8832 $x3331 $x3230 (= (stack_s x_0 x_1 w_1 x_SHA3_0 2 (bvadd (_ bv63 6) ?x4659)) ?x6453) (= (stack_s x_0 x_1 w_1 x_SHA3_0 2 ?x7488) ?x6453) (= (stack_s x_0 x_1 w_1 x_SHA3_0 2 ?x10606) ?x8342) (= ?x4103 (+ 3 (used_gas_s x_0 x_1 w_1 x_SHA3_0 1))) $x3011 $x5505 $x6974 (= $x989 (or $x6011 $x7061 $x11553)) (= ?x7689 (stack_s x_0 x_1 w_1 x_SHA3_0 2 (bvadd (_ bv62 6) ?x4659))) (= ?x109 (stack_s x_0 x_1 w_1 x_SHA3_0 2 (bvadd (_ bv63 6) ?x4659))) (= ?x6278 (+ 3 ?x4103)) $x1751 $x2782 $x8464 $x2002 $x6218 (= ?x5036 (+ 30 ?x6278)) (= (sc_s 4) ?x11671) $x4684 $x1715 $x3334 (= (stack_s x_0 x_1 w_1 x_SHA3_0 5 (sc_s 4)) w_1) (= ?x11404 (+ 3 ?x5036)) $x7497 $x6343 $x5211 $x8006 $x5206 $x8574 $x9387 $x8264 $x4582 $x9275 $x8122 $x8166 (= (stack_t x_0 x_1 w_1 x_SHA3_0 1 (bvadd (_ bv63 6) ?x11158)) ?x8054) (= (stack_t x_0 x_1 w_1 x_SHA3_0 1 ?x2643) ?x8054) (= (used_gas_t x_0 x_1 w_1 x_SHA3_0 1) (+ 3 ?x10034)) $x10652 $x4270 $x5332 (= $x7119 (or $x56 $x11171 (not (bvsle (_ bv0 6) ?x2643)))) (= (stack_t x_0 x_1 w_1 x_SHA3_0 2 ?x11158) w_1) (= ?x10899 (+ 3 (used_gas_t x_0 x_1 w_1 x_SHA3_0 1))) $x7578 $x6824 $x7760 $x4755 (= ?x4265 (stack_t x_0 x_1 w_1 x_SHA3_0 2 (bvadd (_ bv60 6) ?x5014))) $x7454 $x4527 (= ?x4477 (stack_t x_0 x_1 w_1 x_SHA3_0 2 (bvadd (_ bv62 6) ?x5014))) (= ?x9892 (+ 3 ?x10899)) $x11367 $x4754 $x10145 $x2504 (= ?x4914 (f_SHA3 x_0 x_1 w_1 x_SHA3_0 ?x4265 ?x4477)) (= ?x1342 (+ 30 ?x9892)) $x1935 $x487 $x7205 $x10866 $x11769 (= (stack_t x_0 x_1 w_1 x_SHA3_0 5 (bvadd (_ bv62 6) ?x8961)) ?x4914) $x10326 (= ?x8961 ?x10182) $x7957 $x2395 $x10755 $x73 $x9571 $x58 $x11510 $x10109 (not (and $x5889 $x4136 $x11108 $x7890))))))))))))))))))))))))))))))))))))))))))))))))))))))))))))))))))))))))))))))))))))))))))))))))))))))))))))))))))))))))))))
 )
(check-sat)
(get-proof)
